p cnf 52 78
c ind 1 2 3 4 5 6 7 8 9 10 11 12 13 14 15 16 17 18 19 20 21 22 23 24 25 26 27 28 29 30 31 32 33 34 35 36 37 38 39 40 41 42 43 44 45 46 47 48 49 50 51 52 0
1 2 -3 0
4 5 -6 0
7 8 -9 0
10 11 -12 0
13 -14 15 0
16 17 -15 0
18 19 -20 0
21 22 -23 0
24 12 -25 0
26 3 -11 0
27 14 -28 0
29 23 -19 0
30 31 -32 0
33 25 -5 0
34 28 -35 0
36 37 -38 0
39 20 -7 0
40 38 -41 0
42 35 -37 0
43 41 -22 0
44 9 -45 0
46 45 -2 0
47 -17 48 0
-46 -45 0
-26 -3 0
7 -20 0
3 -2 0
-34 -28 0
37 -35 0
-27 -14 0
-29 -23 0
49 -48 0
-50 -32 0
-47 -48 0
-44 -9 0
51 -52 0
-42 -35 0
20 -19 0
41 -38 0
19 -23 0
-30 -31 0
23 -22 0
12 -11 0
-40 -38 0
45 -9 0
-33 -25 0
22 -41 0
-16 -17 0
28 -14 0
50 32 0
-17 15 0
-1 -2 0
25 -12 0
-36 -37 0
14 -15 0
-21 -22 0
-48 17 0
-24 -12 0
52 -6 0
31 -51 0
-51 52 0
-31 51 0
-52 6 0
32 -31 0
-8 -7 0
9 -7 0
5 -25 0
-4 -5 0
2 -45 0
6 -5 0
11 -3 0
38 -37 0
35 -28 0
-13 -15 0
-18 -19 0
-10 -11 0
-39 -20 0
-43 -41 0
